p cnf 298 997
1 2 3 4 5 6 7 11 13 16 19 21 25 0
1 2 3 4 5 6 7 8 12 14 17 20 22 0
1 2 3 4 5 7 8 9 11 13 15 18 23 0
1 2 3 4 5 8 9 10 12 14 16 19 24 0
1 2 3 4 5 9 10 13 15 17 20 21 25 0
1 2 6 7 8 9 10 11 12 16 18 21 24 0
1 2 3 6 7 8 9 10 11 12 13 17 19 22 25 0
2 3 4 6 7 8 9 10 12 13 14 16 18 20 23 0
3 4 5 6 7 8 9 10 13 14 15 17 19 21 24 0
4 5 6 7 8 9 10 14 15 18 20 22 25 0
1 3 6 7 11 12 13 14 15 16 17 21 23 0
2 4 6 7 8 11 12 13 14 15 16 17 18 22 24 0
1 3 5 7 8 9 11 12 13 14 15 17 18 19 21 23 25 0
2 4 8 9 10 11 12 13 14 15 18 19 20 22 24 0
3 5 9 10 11 12 13 14 15 19 20 23 25 0
1 4 6 8 11 12 16 17 18 19 20 21 22 0
2 5 7 9 11 12 13 16 17 18 19 20 21 22 23 0
3 6 8 10 12 13 14 16 17 18 19 20 22 23 24 0
1 4 7 9 13 14 15 16 17 18 19 20 23 24 25 0
2 5 8 10 14 15 16 17 18 19 20 24 25 0
1 5 6 9 11 13 16 17 21 22 23 24 25 0
2 7 10 12 14 16 17 18 21 22 23 24 25 0
3 8 11 13 15 17 18 19 21 22 23 24 25 0
4 6 9 12 14 18 19 20 21 22 23 24 25 0
1 5 7 10 13 15 19 20 21 22 23 24 25 0
-13 -12 -5 0
-13 -12 -8 0
-13 -12 -10 0
-13 -12 -14 0
-13 -12 -15 0
-13 -12 -18 0
-13 -12 -20 0
-13 -12 -25 0
-13 -14 -8 0
-13 -14 -18 0
-13 -14 -6 0
-13 -14 -11 0
-13 -14 -1 0
-13 -14 -16 0
-13 -14 -21 0
-13 -18 -8 0
-13 -18 -1 0
-13 -18 -5 0
-13 -18 -3 0
-13 -18 -4 0
-13 -18 -2 0
-13 -4 -2 0
-13 -4 -10 0
-13 -4 -16 0
-13 -4 -24 0
-13 -6 -2 0
-13 -6 -10 0
-13 -6 -16 0
-13 -6 -24 0
-13 -20 -2 0
-13 -20 -10 0
-13 -20 -16 0
-13 -20 -24 0
-13 -22 -2 0
-13 -22 -10 0
-13 -22 -16 0
-13 -22 -24 0
-13 -22 -8 0
-13 -24 -8 0
-13 -9 -17 0
-13 -19 -7 0
-13 -21 -8 0
-13 -21 -5 0
-13 -25 -8 0
-13 -25 -1 0
-13 -23 -8 0
-7 -19 -9 0
-7 -19 -21 0
-7 -19 -25 0
-7 -19 -17 0
-7 -19 -1 0
-7 -19 -5 0
-7 -20 -24 0
-7 -12 -25 0
-7 -12 -17 0
-7 -14 -17 0
-7 -14 -21 0
-7 -9 -17 0
-7 -9 -18 0
-7 -9 -8 0
-7 -25 -8 0
-7 -10 -22 0
-7 -10 -21 0
-7 -5 -18 0
-7 -5 -22 0
-19 -6 -2 0
-19 -12 -5 0
-19 -12 -9 0
-19 -14 -9 0
-19 -14 -1 0
-19 -16 -4 0
-19 -16 -5 0
-19 -17 -18 0
-19 -17 -8 0
-19 -17 -9 0
-19 -1 -18 0
-19 -21 -8 0
-19 -21 -4 0
-1 -18 -14 0
-1 -18 -15 0
-1 -18 -3 0
-1 -18 -9 0
-1 -18 -5 0
-1 -18 -10 0
-1 -8 -23 0
-1 -8 -12 0
-1 -24 -9 0
-1 -24 -20 0
-1 -22 -10 0
-1 -22 -14 0
-1 -17 -14 0
-1 -17 -9 0
-1 -17 -20 0
-1 -23 -14 0
-1 -23 -15 0
-1 -15 -12 0
-1 -11 -14 0
-1 -21 -14 0
-2 -23 -8 0
-2 -23 -4 0
-2 -23 -6 0
-2 -15 -6 0
-2 -15 -22 0
-2 -25 -6 0
-2 -25 -17 0
-2 -21 -14 0
-2 -21 -20 0
-2 -22 -14 0
-2 -20 -17 0
-3 -24 -22 0
-3 -24 -20 0
-3 -24 -18 0
-3 -22 -18 0
-3 -22 -16 0
-3 -20 -16 0
-3 -25 -18 0
-3 -25 -12 0
-3 -25 -11 0
-3 -21 -18 0
-3 -21 -15 0
-3 -21 -14 0
-3 -23 -18 0
-3 -23 -8 0
-3 -5 -18 0
-4 -23 -10 0
-4 -23 -8 0
-4 -17 -10 0
-4 -21 -10 0
-4 -11 -10 0
-4 -11 -24 0
-4 -12 -24 0
-4 -12 -25 0
-4 -16 -25 0
-5 -12 -23 0
-5 -12 -17 0
-5 -12 -15 0
-5 -12 -24 0
-5 -12 -25 0
-5 -12 -18 0
-5 -17 -18 0
-5 -17 -9 0
-5 -6 -18 0
-5 -6 -24 0
-5 -8 -14 0
-5 -8 -23 0
-5 -22 -16 0
-5 -11 -14 0
-5 -11 -18 0
-5 -11 -23 0
-6 -15 -12 0
-6 -15 -16 0
-6 -9 -25 0
-6 -9 -24 0
-6 -23 -10 0
-6 -18 -10 0
-11 -14 -15 0
-11 -14 -10 0
-11 -14 -25 0
-11 -14 -20 0
-11 -14 -21 0
-11 -20 -10 0
-11 -20 -24 0
-11 -8 -25 0
-11 -12 -15 0
-16 -15 -12 0
-16 -15 -22 0
-16 -9 -22 0
-16 -8 -20 0
-16 -8 -25 0
-21 -8 -15 0
-21 -8 -9 0
-21 -8 -23 0
-21 -8 -25 0
-21 -8 -14 0
-21 -8 -20 0
-21 -9 -14 0
-21 -9 -17 0
-21 -18 -12 0
-21 -15 -12 0
-25 -8 -23 0
-25 -8 -17 0
-25 -8 -12 0
-25 -18 -14 0
-25 -9 -12 0
-25 -9 -17 0
-25 -15 -12 0
-43 31 47 0
-44 32 47 0
-45 33 47 0
-46 34 47 0
-37 31 47 0
-38 32 47 0
-39 33 47 0
-40 34 47 0
-37 -43 32 47 0
-37 -44 33 47 0
-37 -45 34 47 0
-37 -46 47 0
-38 -43 33 47 0
-38 -44 34 47 0
-38 -45 47 0
-38 -46 31 0
-39 -43 34 47 0
-39 -44 47 0
-39 -45 31 0
-39 -46 32 0
-40 -43 47 0
-40 -44 31 0
-40 -45 32 0
-40 -46 33 0
-47 26 0
-41 26 0
-47 -41 27 0
-42 27 0
-47 -42 28 0
-35 26 0
-47 -35 27 0
-36 27 0
-47 -36 28 0
-35 -41 27 0
-47 -35 -41 28 0
-35 -42 28 0
-47 -35 -42 29 0
-36 -41 28 0
-47 -36 -41 29 0
-36 -42 29 0
-47 -36 -42 30 0
-54 43 58 0
-55 44 58 0
-56 45 58 0
-57 46 58 0
-49 43 58 0
-50 44 58 0
-51 45 58 0
-52 46 58 0
-49 -54 44 58 0
-49 -55 45 58 0
-49 -56 46 58 0
-49 -57 58 0
-50 -54 45 58 0
-50 -55 46 58 0
-50 -56 58 0
-50 -57 43 0
-51 -54 46 58 0
-51 -55 58 0
-51 -56 43 0
-51 -57 44 0
-52 -54 58 0
-52 -55 43 0
-52 -56 44 0
-52 -57 45 0
-58 41 0
-53 41 0
-58 -53 42 0
-48 41 0
-58 -48 42 0
-48 -53 42 0
-58 -48 -53 0
-24 59 0
-62 59 0
-63 60 0
-62 -24 60 0
-63 -24 61 0
-25 62 0
-20 62 0
-20 -25 63 0
-21 64 0
-67 64 0
-68 65 0
-67 -21 65 0
-68 -21 66 0
-22 67 0
-23 67 0
-23 -22 68 0
-64 54 69 0
-65 55 69 0
-66 56 69 0
-59 54 69 0
-60 55 69 0
-61 56 69 0
-59 -64 55 69 0
-59 -65 56 69 0
-59 -66 57 69 0
-60 -64 56 69 0
-60 -65 57 69 0
-60 -66 69 0
-61 -64 57 69 0
-61 -65 69 0
-61 -66 54 0
-69 53 0
-4 70 0
-73 70 0
-74 71 0
-73 -4 71 0
-74 -4 72 0
-3 73 0
-8 73 0
-8 -3 74 0
-15 75 0
-78 75 0
-79 76 0
-78 -15 76 0
-79 -15 77 0
-10 78 0
-5 78 0
-5 -10 79 0
-75 49 80 0
-76 50 80 0
-77 51 80 0
-70 49 80 0
-71 50 80 0
-72 51 80 0
-70 -75 50 80 0
-70 -76 51 80 0
-70 -77 52 80 0
-71 -75 51 80 0
-71 -76 52 80 0
-71 -77 80 0
-72 -75 52 80 0
-72 -76 80 0
-72 -77 49 0
-80 48 0
-87 37 91 0
-88 38 91 0
-89 39 91 0
-90 40 91 0
-82 37 91 0
-83 38 91 0
-84 39 91 0
-85 40 91 0
-82 -87 38 91 0
-82 -88 39 91 0
-82 -89 40 91 0
-82 -90 91 0
-83 -87 39 91 0
-83 -88 40 91 0
-83 -89 91 0
-83 -90 37 0
-84 -87 40 91 0
-84 -88 91 0
-84 -89 37 0
-84 -90 38 0
-85 -87 91 0
-85 -88 37 0
-85 -89 38 0
-85 -90 39 0
-91 35 0
-86 35 0
-91 -86 36 0
-81 35 0
-91 -81 36 0
-81 -86 36 0
-91 -81 -86 0
-18 92 0
-95 92 0
-96 93 0
-95 -18 93 0
-96 -18 94 0
-13 95 0
-12 95 0
-12 -13 96 0
-9 97 0
-100 97 0
-101 98 0
-100 -9 98 0
-101 -9 99 0
-14 100 0
-19 100 0
-19 -14 101 0
-97 87 102 0
-98 88 102 0
-99 89 102 0
-92 87 102 0
-93 88 102 0
-94 89 102 0
-92 -97 88 102 0
-92 -98 89 102 0
-92 -99 90 102 0
-93 -97 89 102 0
-93 -98 90 102 0
-93 -99 102 0
-94 -97 90 102 0
-94 -98 102 0
-94 -99 87 0
-102 86 0
-109 103 0
-110 104 0
-107 103 0
-108 104 0
-107 -109 104 0
-107 -110 105 0
-108 -109 105 0
-108 -110 106 0
-6 109 0
-7 109 0
-7 -6 110 0
-2 107 0
-1 107 0
-1 -2 108 0
-17 111 0
-114 111 0
-115 112 0
-114 -17 112 0
-115 -17 113 0
-16 114 0
-11 114 0
-11 -16 115 0
-111 82 116 0
-112 83 116 0
-113 84 116 0
-103 82 116 0
-104 83 116 0
-105 84 116 0
-106 85 116 0
-103 -111 83 116 0
-103 -112 84 116 0
-103 -113 85 116 0
-104 -111 84 116 0
-104 -112 85 116 0
-104 -113 116 0
-105 -111 85 116 0
-105 -112 116 0
-105 -113 82 0
-106 -111 116 0
-106 -112 82 0
-106 -113 83 0
-116 81 0
-26 0
-27 0
-28 0
-29 0
-30 0
-34 0
117 0
142 0
118 5 -117 0
118 -1 -117 0
5 -1 -117 0
119 10 -118 0
119 -2 -118 0
10 -2 -118 0
120 15 -119 0
120 -3 -119 0
15 -3 -119 0
121 20 -120 0
121 -4 -120 0
20 -4 -120 0
122 25 -121 0
122 -5 -121 0
25 -5 -121 0
123 4 -122 0
123 -6 -122 0
4 -6 -122 0
124 9 -123 0
124 -7 -123 0
9 -7 -123 0
125 14 -124 0
125 -8 -124 0
14 -8 -124 0
126 19 -125 0
126 -9 -125 0
19 -9 -125 0
127 24 -126 0
127 -10 -126 0
24 -10 -126 0
128 3 -127 0
128 -11 -127 0
3 -11 -127 0
129 8 -128 0
129 -12 -128 0
8 -12 -128 0
130 13 -129 0
130 -13 -129 0
13 -13 -129 0
131 18 -130 0
131 -14 -130 0
18 -14 -130 0
132 23 -131 0
132 -15 -131 0
23 -15 -131 0
133 2 -132 0
133 -16 -132 0
2 -16 -132 0
134 7 -133 0
134 -17 -133 0
7 -17 -133 0
135 12 -134 0
135 -18 -134 0
12 -18 -134 0
136 17 -135 0
136 -19 -135 0
17 -19 -135 0
137 22 -136 0
137 -20 -136 0
22 -20 -136 0
138 1 -137 0
138 -21 -137 0
1 -21 -137 0
139 6 -138 0
139 -22 -138 0
6 -22 -138 0
140 11 -139 0
140 -23 -139 0
11 -23 -139 0
141 16 -140 0
141 -24 -140 0
16 -24 -140 0
142 21 -141 0
142 -25 -141 0
21 -25 -141 0
143 0
168 0
144 25 -143 0
144 -1 -143 0
25 -1 -143 0
145 24 -144 0
145 -2 -144 0
24 -2 -144 0
146 23 -145 0
146 -3 -145 0
23 -3 -145 0
147 22 -146 0
147 -4 -146 0
22 -4 -146 0
148 21 -147 0
148 -5 -147 0
21 -5 -147 0
149 20 -148 0
149 -6 -148 0
20 -6 -148 0
150 19 -149 0
150 -7 -149 0
19 -7 -149 0
151 18 -150 0
151 -8 -150 0
18 -8 -150 0
152 17 -151 0
152 -9 -151 0
17 -9 -151 0
153 16 -152 0
153 -10 -152 0
16 -10 -152 0
154 15 -153 0
154 -11 -153 0
15 -11 -153 0
155 14 -154 0
155 -12 -154 0
14 -12 -154 0
156 13 -155 0
156 -13 -155 0
13 -13 -155 0
157 12 -156 0
157 -14 -156 0
12 -14 -156 0
158 11 -157 0
158 -15 -157 0
11 -15 -157 0
159 10 -158 0
159 -16 -158 0
10 -16 -158 0
160 9 -159 0
160 -17 -159 0
9 -17 -159 0
161 8 -160 0
161 -18 -160 0
8 -18 -160 0
162 7 -161 0
162 -19 -161 0
7 -19 -161 0
163 6 -162 0
163 -20 -162 0
6 -20 -162 0
164 5 -163 0
164 -21 -163 0
5 -21 -163 0
165 4 -164 0
165 -22 -164 0
4 -22 -164 0
166 3 -165 0
166 -23 -165 0
3 -23 -165 0
167 2 -166 0
167 -24 -166 0
2 -24 -166 0
168 1 -167 0
168 -25 -167 0
1 -25 -167 0
169 0
194 0
170 21 -169 0
170 -1 -169 0
21 -1 -169 0
171 16 -170 0
171 -2 -170 0
16 -2 -170 0
172 11 -171 0
172 -3 -171 0
11 -3 -171 0
173 6 -172 0
173 -4 -172 0
6 -4 -172 0
174 1 -173 0
174 -5 -173 0
1 -5 -173 0
175 22 -174 0
175 -6 -174 0
22 -6 -174 0
176 17 -175 0
176 -7 -175 0
17 -7 -175 0
177 12 -176 0
177 -8 -176 0
12 -8 -176 0
178 7 -177 0
178 -9 -177 0
7 -9 -177 0
179 2 -178 0
179 -10 -178 0
2 -10 -178 0
180 23 -179 0
180 -11 -179 0
23 -11 -179 0
181 18 -180 0
181 -12 -180 0
18 -12 -180 0
182 13 -181 0
182 -13 -181 0
13 -13 -181 0
183 8 -182 0
183 -14 -182 0
8 -14 -182 0
184 3 -183 0
184 -15 -183 0
3 -15 -183 0
185 24 -184 0
185 -16 -184 0
24 -16 -184 0
186 19 -185 0
186 -17 -185 0
19 -17 -185 0
187 14 -186 0
187 -18 -186 0
14 -18 -186 0
188 9 -187 0
188 -19 -187 0
9 -19 -187 0
189 4 -188 0
189 -20 -188 0
4 -20 -188 0
190 25 -189 0
190 -21 -189 0
25 -21 -189 0
191 20 -190 0
191 -22 -190 0
20 -22 -190 0
192 15 -191 0
192 -23 -191 0
15 -23 -191 0
193 10 -192 0
193 -24 -192 0
10 -24 -192 0
194 5 -193 0
194 -25 -193 0
5 -25 -193 0
195 0
220 0
196 5 -195 0
196 -1 -195 0
5 -1 -195 0
197 4 -196 0
197 -2 -196 0
4 -2 -196 0
198 3 -197 0
198 -3 -197 0
3 -3 -197 0
199 2 -198 0
199 -4 -198 0
2 -4 -198 0
200 1 -199 0
200 -5 -199 0
1 -5 -199 0
201 10 -200 0
201 -6 -200 0
10 -6 -200 0
202 9 -201 0
202 -7 -201 0
9 -7 -201 0
203 8 -202 0
203 -8 -202 0
8 -8 -202 0
204 7 -203 0
204 -9 -203 0
7 -9 -203 0
205 6 -204 0
205 -10 -204 0
6 -10 -204 0
206 15 -205 0
206 -11 -205 0
15 -11 -205 0
207 14 -206 0
207 -12 -206 0
14 -12 -206 0
208 13 -207 0
208 -13 -207 0
13 -13 -207 0
209 12 -208 0
209 -14 -208 0
12 -14 -208 0
210 11 -209 0
210 -15 -209 0
11 -15 -209 0
211 20 -210 0
211 -16 -210 0
20 -16 -210 0
212 19 -211 0
212 -17 -211 0
19 -17 -211 0
213 18 -212 0
213 -18 -212 0
18 -18 -212 0
214 17 -213 0
214 -19 -213 0
17 -19 -213 0
215 16 -214 0
215 -20 -214 0
16 -20 -214 0
216 25 -215 0
216 -21 -215 0
25 -21 -215 0
217 24 -216 0
217 -22 -216 0
24 -22 -216 0
218 23 -217 0
218 -23 -217 0
23 -23 -217 0
219 22 -218 0
219 -24 -218 0
22 -24 -218 0
220 21 -219 0
220 -25 -219 0
21 -25 -219 0
221 0
246 0
222 21 -221 0
222 -1 -221 0
21 -1 -221 0
223 22 -222 0
223 -2 -222 0
22 -2 -222 0
224 23 -223 0
224 -3 -223 0
23 -3 -223 0
225 24 -224 0
225 -4 -224 0
24 -4 -224 0
226 25 -225 0
226 -5 -225 0
25 -5 -225 0
227 16 -226 0
227 -6 -226 0
16 -6 -226 0
228 17 -227 0
228 -7 -227 0
17 -7 -227 0
229 18 -228 0
229 -8 -228 0
18 -8 -228 0
230 19 -229 0
230 -9 -229 0
19 -9 -229 0
231 20 -230 0
231 -10 -230 0
20 -10 -230 0
232 11 -231 0
232 -11 -231 0
11 -11 -231 0
233 12 -232 0
233 -12 -232 0
12 -12 -232 0
234 13 -233 0
234 -13 -233 0
13 -13 -233 0
235 14 -234 0
235 -14 -234 0
14 -14 -234 0
236 15 -235 0
236 -15 -235 0
15 -15 -235 0
237 6 -236 0
237 -16 -236 0
6 -16 -236 0
238 7 -237 0
238 -17 -237 0
7 -17 -237 0
239 8 -238 0
239 -18 -238 0
8 -18 -238 0
240 9 -239 0
240 -19 -239 0
9 -19 -239 0
241 10 -240 0
241 -20 -240 0
10 -20 -240 0
242 1 -241 0
242 -21 -241 0
1 -21 -241 0
243 2 -242 0
243 -22 -242 0
2 -22 -242 0
244 3 -243 0
244 -23 -243 0
3 -23 -243 0
245 4 -244 0
245 -24 -244 0
4 -24 -244 0
246 5 -245 0
246 -25 -245 0
5 -25 -245 0
247 0
272 0
248 1 -247 0
248 -1 -247 0
1 -1 -247 0
249 6 -248 0
249 -2 -248 0
6 -2 -248 0
250 11 -249 0
250 -3 -249 0
11 -3 -249 0
251 16 -250 0
251 -4 -250 0
16 -4 -250 0
252 21 -251 0
252 -5 -251 0
21 -5 -251 0
253 2 -252 0
253 -6 -252 0
2 -6 -252 0
254 7 -253 0
254 -7 -253 0
7 -7 -253 0
255 12 -254 0
255 -8 -254 0
12 -8 -254 0
256 17 -255 0
256 -9 -255 0
17 -9 -255 0
257 22 -256 0
257 -10 -256 0
22 -10 -256 0
258 3 -257 0
258 -11 -257 0
3 -11 -257 0
259 8 -258 0
259 -12 -258 0
8 -12 -258 0
260 13 -259 0
260 -13 -259 0
13 -13 -259 0
261 18 -260 0
261 -14 -260 0
18 -14 -260 0
262 23 -261 0
262 -15 -261 0
23 -15 -261 0
263 4 -262 0
263 -16 -262 0
4 -16 -262 0
264 9 -263 0
264 -17 -263 0
9 -17 -263 0
265 14 -264 0
265 -18 -264 0
14 -18 -264 0
266 19 -265 0
266 -19 -265 0
19 -19 -265 0
267 24 -266 0
267 -20 -266 0
24 -20 -266 0
268 5 -267 0
268 -21 -267 0
5 -21 -267 0
269 10 -268 0
269 -22 -268 0
10 -22 -268 0
270 15 -269 0
270 -23 -269 0
15 -23 -269 0
271 20 -270 0
271 -24 -270 0
20 -24 -270 0
272 25 -271 0
272 -25 -271 0
25 -25 -271 0
273 0
298 0
274 25 -273 0
274 -1 -273 0
25 -1 -273 0
275 20 -274 0
275 -2 -274 0
20 -2 -274 0
276 15 -275 0
276 -3 -275 0
15 -3 -275 0
277 10 -276 0
277 -4 -276 0
10 -4 -276 0
278 5 -277 0
278 -5 -277 0
5 -5 -277 0
279 24 -278 0
279 -6 -278 0
24 -6 -278 0
280 19 -279 0
280 -7 -279 0
19 -7 -279 0
281 14 -280 0
281 -8 -280 0
14 -8 -280 0
282 9 -281 0
282 -9 -281 0
9 -9 -281 0
283 4 -282 0
283 -10 -282 0
4 -10 -282 0
284 23 -283 0
284 -11 -283 0
23 -11 -283 0
285 18 -284 0
285 -12 -284 0
18 -12 -284 0
286 13 -285 0
286 -13 -285 0
13 -13 -285 0
287 8 -286 0
287 -14 -286 0
8 -14 -286 0
288 3 -287 0
288 -15 -287 0
3 -15 -287 0
289 22 -288 0
289 -16 -288 0
22 -16 -288 0
290 17 -289 0
290 -17 -289 0
17 -17 -289 0
291 12 -290 0
291 -18 -290 0
12 -18 -290 0
292 7 -291 0
292 -19 -291 0
7 -19 -291 0
293 2 -292 0
293 -20 -292 0
2 -20 -292 0
294 21 -293 0
294 -21 -293 0
21 -21 -293 0
295 16 -294 0
295 -22 -294 0
16 -22 -294 0
296 11 -295 0
296 -23 -295 0
11 -23 -295 0
297 6 -296 0
297 -24 -296 0
6 -24 -296 0
298 1 -297 0
298 -25 -297 0
1 -25 -297 0
